c Random generated cnf formula, satisfiable: false
p cnf 10 50
-4 -10 -1 0
5 4 -6 0
4 9 -1 0
2 -6 -9 0
-5 1 -4 0
-10 -5 -6 0
5 10 -4 0
-2 -5 3 0
2 8 -6 0
4 8 10 0
-4 7 2 0
3 -5 2 0
5 -9 10 0
-6 8 -7 0
2 -6 7 0
10 -1 -3 0
-2 -6 -5 0
-3 9 8 0
4 1 -6 0
5 8 7 0
2 3 1 0
4 3 5 0
6 1 -3 0
7 -1 -2 0
6 -5 -1 0
-10 5 4 0
7 -9 5 0
10 -1 -5 0
-4 -5 -10 0
1 8 -3 0
7 -5 1 0
-8 1 5 0
5 8 3 0
6 9 -2 0
10 6 7 0
2 -8 3 0
4 7 -6 0
-4 9 -7 0
10 -6 9 0
-8 -2 -5 0
6 -10 -3 0
1 4 9 0
6 10 -4 0
-8 -10 -3 0
-6 7 1 0
-10 -9 -2 0
-9 10 -6 0
-9 5 -4 0
-1 -2 -3 0
2 7 -5 0
